20
[-1, 436, 0, 0, 0, 0, 0, 113, 325, 0, 529, 213, 0, 126, 0, 0, 0, 920, 207, 0, 
436, -1, 936, 77, 652, 318, 0, 46, 0, 714, 0, 126, 496, 313, 0, 0, 0, 0, 0, 0, 
0, 936, -1, 780, 623, 0, 0, 758, 0, 0, 0, 222, 284, 627, 189, 0, 701, 0, 0, 360, 
0, 77, 780, -1, 0, 0, 818, 0, 0, 0, 431, 842, 875, 0, 0, 0, 0, 547, 624, 0, 
0, 652, 623, 0, -1, 555, 0, 0, 0, 193, 0, 621, 933, 397, 0, 0, 616, 260, 0, 0, 
0, 318, 0, 0, 555, -1, 635, 0, 124, 139, 483, 133, 0, 810, 377, 944, 0, 689, 0, 635, 
0, 0, 0, 818, 0, 635, -1, 0, 49, 150, 0, 823, 431, 0, 0, 0, 0, 0, 747, 0, 
113, 46, 758, 0, 0, 0, 0, -1, 0, 12, 643, 0, 185, 322, 527, 0, 0, 0, 469, 0, 
325, 0, 0, 0, 0, 124, 49, 0, -1, 977, 56, 0, 0, 0, 0, 413, 0, 0, 0, 0, 
0, 714, 0, 0, 193, 139, 150, 12, 977, -1, 711, 0, 256, 0, 48, 856, 0, 0, 0, 538, 
529, 0, 0, 431, 0, 483, 0, 643, 56, 711, -1, 58, 15, 917, 31, 0, 978, 219, 218, 278, 
213, 126, 222, 842, 621, 133, 823, 0, 0, 0, 58, -1, 0, 472, 0, 0, 3, 844, 0, 0, 
0, 496, 284, 875, 933, 0, 431, 185, 0, 256, 15, 0, -1, 0, 0, 0, 0, 0, 988, 0, 
126, 313, 627, 0, 397, 810, 0, 322, 0, 0, 917, 472, 0, -1, 66, 353, 480, 488, 214, 0, 
0, 0, 189, 0, 0, 377, 0, 527, 0, 48, 31, 0, 0, 66, -1, 15, 0, 765, 0, 966, 
0, 0, 0, 0, 0, 944, 0, 0, 413, 856, 0, 0, 0, 353, 15, -1, 686, 421, 860, 588, 
0, 0, 701, 0, 616, 0, 0, 0, 0, 0, 978, 3, 0, 480, 0, 686, -1, 112, 0, 543, 
920, 0, 0, 547, 260, 689, 0, 0, 0, 0, 219, 844, 0, 488, 765, 421, 112, -1, 0, 0, 
207, 0, 0, 624, 0, 0, 747, 469, 0, 0, 218, 0, 988, 214, 0, 860, 0, 0, -1, 604, 
0, 0, 360, 0, 0, 635, 0, 0, 0, 538, 278, 0, 0, 0, 966, 588, 543, 0, 604, -1]